1945
1469
9394
3075
4597
8141
9599
2425
4890
3629
428
869
3675
8711
493
5659
8101
8978
9973
824
3867
9670
4922
10189
5278
9859
803
3248
5228
4690
4863
7572
874
3227
2484
4637
9635
6454
6140
552
6032
5831
1087
8007
6513
9256
7658
8035
8137
6857
